StudentsNr = 10;
InstructorsNr = 17;
DaysNr = 1;
SlotsPerDay = 60;
AvailabilitySlotsLenght = 20;
RoomNr = 1;
ProgrammNr = 1;
DegreeNr = 1;
RolesNr = 1;
CoursesNr = 2;
InstructorsProgramm = [{1}, {1}, {1}, {1}, {1}, {1}, {1}, {1}, {1}, {1}, {1}, {1}, {1}, {1}, {1}, {1}, {1}];
InstructorRolesPerProgramm = [|{2, 4, 5, 6, 7, 8, 9, 14, 16, 17}|];
InstructorsAvailability = [|1, 1, 0, |0, 1, 0, |0, 1, 1, |1, 1, 0, |0, 0, 1, |0, 0, 1, |1, 0, 0, |0, 0, 0, |1, 1, 1, |0, 1, 1, |0, 1, 1, |1, 1, 1, |1, 0, 1, |0, 0, 1, |1, 1, 1, |1, 1, 1, |1, 1, 1|];
StudentsProgramm = [1, 1, 1, 1, 1, 1, 1, 1, 1, 1];
StudentsDegree = [1, 1, 1, 1, 1, 1, 1, 1, 1, 1];
StudentsSupervisorId = [15, 1, 17, 5, 17, 9, 15, 3, 7, 13];
StudentsCourseIds = [{1}, {2}, {1}, {2}, {2}, {2}, {2}, {2}, {2}, {2}];
StudentsAvailability = [|1, 1, 1, |0, 1, 0, |1, 1, 1, |0, 0, 1, |0, 0, 0, |1, 0, 1, |0, 1, 1, |1, 0, 0, |1, 1, 1, |1, 1, 1|];
TheoryticalMinCard = [1, 1, 0, 0, 0, 0, 1, 0, 0, 0];
CoursesInstructorIds = [{2, 3, 5, 6, 7, 8, 10, 11, 12, 13, 14, 16}, {2, 3, 4, 5, 7, 10, 13, 14, 17}];
RolesDemands = [2];
RolesContinuity = [];
ExamLen = [1, 1, 1, 1, 1, 1, 1, 1, 1, 1];
LunchTsMinLen = 1;
LunchStarts = [30..36];
SupervisorAvailable = 5;
OptimalLunchLenght = [2, 1];
OptimalStartTs = [1, 0];
OptimalFinishTs = [2, 60];
MinimizeRooms = 0;
RolesSoftContinuity = [|1|0|];
SameDegreeInRoom = 20;
Mergeability = 1;
